Cu31
1.0
   7.2298000000000000    0.0000000000000000    0.0000000000000000
   0.0000000000000000    7.2298000000000000    0.0000000000000000
   0.0000000000000000    0.0000000000000000    7.2298000000000000
Cu
31
direct
   0.0000000000000000    0.0000000000000000    0.4999999999999999 Cu
   0.0000000000000000    0.4999999999999999    0.0000000000000000 Cu
   0.0000000000000000    0.4999999999999999    0.4999999999999999 Cu
   0.4999999999999999    0.0000000000000000    0.0000000000000000 Cu
   0.4999999999999999    0.0000000000000000    0.4999999999999999 Cu
   0.4999999999999999    0.4999999999999999    0.0000000000000000 Cu
   0.4999999999999999    0.4999999999999999    0.4999999999999999 Cu
   0.0000000000000000    0.2500000000000000    0.2500000000000000 Cu
   0.0000000000000000    0.2500000000000000    0.7499999999999999 Cu
   0.0000000000000000    0.7499999999999999    0.2500000000000000 Cu
   0.0000000000000000    0.7499999999999999    0.7499999999999999 Cu
   0.4999999999999999    0.2500000000000000    0.2500000000000000 Cu
   0.4999999999999999    0.2500000000000000    0.7499999999999999 Cu
   0.4999999999999999    0.7499999999999999    0.2500000000000000 Cu
   0.4999999999999999    0.7499999999999999    0.7499999999999999 Cu
   0.2500000000000000    0.0000000000000000    0.2500000000000000 Cu
   0.2500000000000000    0.0000000000000000    0.7499999999999999 Cu
   0.2500000000000000    0.4999999999999999    0.2500000000000000 Cu
   0.2500000000000000    0.4999999999999999    0.7499999999999999 Cu
   0.7499999999999999    0.0000000000000000    0.2500000000000000 Cu
   0.7499999999999999    0.0000000000000000    0.7499999999999999 Cu
   0.7499999999999999    0.4999999999999999    0.2500000000000000 Cu
   0.7499999999999999    0.4999999999999999    0.7499999999999999 Cu
   0.2500000000000000    0.2500000000000000    0.0000000000000000 Cu
   0.2500000000000000    0.2500000000000000    0.4999999999999999 Cu
   0.2500000000000000    0.7499999999999999    0.0000000000000000 Cu
   0.2500000000000000    0.7499999999999999    0.4999999999999999 Cu
   0.7499999999999999    0.2500000000000000    0.0000000000000000 Cu
   0.7499999999999999    0.2500000000000000    0.4999999999999999 Cu
   0.7499999999999999    0.7499999999999999    0.0000000000000000 Cu
   0.7499999999999999    0.7499999999999999    0.4999999999999999 Cu
